p cnf 48 29
2 4 0
-3 -4 0
7 11 12 0
-7 -8 0
37 38 39 0
-37 -38 0
-37 -39 0
-37 -40 0
-37 -41 0
-38 -39 0
-38 -40 0
-38 -41 0
-39 -40 0
-39 -41 0
-46 -47 0
-46 -48 0
-47 -48 0
-14 -8 0
-11 39 0
-2 -12 0
-3 -8 37 0
-3 38 0
-3 38 0
-3 -12 0
-4 -11 0
-4 -9 0
-4 38 0
-4 -8 0
-4 -7 39 0
